c Reduced graph for GEOM20b_2 generated by Cyril Grelier
p edge 16 27
e 1 7
e 1 8
e 1 12
e 1 13
e 1 15
e 1 16
e 2 12
e 2 13
e 2 14
e 3 6
e 3 7
e 3 9
e 4 10
e 4 15
e 5 11
e 5 14
e 6 9
e 7 13
e 7 15
e 8 11
e 8 16
e 10 15
e 11 12
e 11 14
e 11 16
e 12 13
e 12 14
